COLUMNS

passenger_count
pickup_ID
dropoff_ID
request_time_sec
pickup_district
dropoff_district
LDuals
IDuals
vehicle_ID
pick_position
drop_position

REQUESTS_INFO
1      816       653       30783     290       189       156       156       22        1         3         
1      549       510       30753     52        199       173       173       64        1         2         
1      847       718       30804     291       189       126       126       121       1         2         
1      345       48        30809     299       98        115       115       126       1         3         
3      374       288       30782     119       127       174       174       223       1         2         
2      951       377       30788     290       168       243.5     243.5     251       1         4         
1      951       443       30800     290       168       231.5     231.5     251       2         3         
2      905       122       30782     290       54        193       193       253       1         4         
2      961       834       30780     291       290       192       192       258       1         3         
1      415       409       30785     100       52        147       147       287       1         2         
1      337       504       30797     277       52        163       163       328       1         2         
1      971       581       30718     290       189       264       264       368       1         3         
3      1371      551       30762     129       189       243       243       402       1         2         
1      948       621       30728     290       280       282.5     282.5     414       1         3         
1      889       415       30807     290       100       182.5     182.5     420       1         4         
3      951       377       30788     290       168       243.5     243.5     420       2         3         
1      485       673       30791     189       189       148       148       449       1         2         
2      923       959       30778     290       291       238       238       460       1         2         
2      336       505       30807     277       52        157       157       479       1         2         
1      812       969       30785     290       290       149       149       502       1         3         
1      1003      670       30808     291       280       160       160       511       1         2         
2      951       1249      30721     290       129       335       335       543       1         2         
1      991       948       30790     290       290       172       172       635       1         3         
2      557       748       30788     189       290       111       111       639       1         3         
2      463       480       30802     168       52        138       138       649       1         2         
1      270       604       30797     127       189       122       122       654       1         3         
1      771       674       30802     290       189       116       116       683       1         2         
2      1543      1530      30705     296       296       217       217       687       1         2         
1      295       202       30807     87        87        133       133       703       1         2         
3      906       926       30722     290       290       299       299       710       1         2         
1      860       697       30750     290       189       233       233       711       1         4         
1      886       674       30766     290       189       244       244       715       1         2         
3      270       648       30803     127       189       116       116       723       1         3         
1      463       651       30756     168       189       173       173       738       1         4         
3      929       886       30728     290       290       305       305       747       1         2         
3      463       480       30802     168       52        138       138       770       1         2         
1      643       527       30794     131       52        113       113       786       1         2         
1      527       554       30798     52        189       147       147       818       1         2         
1      874       981       30794     291       291       130       130       846       1         2         
2      352       552       30752     119       189       168       168       847       1         2         
3      1543      1530      30705     296       296       217       217       882       1         2         
1      790       738       30766     290       189       165       165       883       1         2         
3      924       81        30708     290       98        294       294       906       1         2         
1      816       758       30761     290       131       190.5     190.5     937       1         2         
1      928       558       30767     290       189       223.75    223.75    969       1         4         
2      532       647       30790     199       280       112       112       974       1         2         
3      951       1249      30721     290       129       335       335       1039      1         2         
1      865       815       30789     290       290       186.5     186.5     1130      1         2         
1      1137      1116      30731     84        84        219       219       1146      1         2         
3      923       959       30778     290       291       238       238       1165      1         2         
4      794       392       30724     290       52        238       238       1182      1         2         
1      970       836       30777     290       290       213.5     213.5     1199      1         3         
1      984       604       30786     291       189       210       210       1236      1         2         
2      926       376       30801     290       168       227       227       1237      1         2         
1      813       605       30659     290       189       312       312       1251      1         2         
1      991       721       30787     290       290       175       175       1261      1         3         
1      1475      1172      30808     296       129       149       149       1266      1         2         
1      913       717       30807     291       189       144       144       1316      1         2         
1      926       532       30708     290       199       261       261       1344      1         5         
1      772       64        30782     290       98        137       137       1345      1         4         
2      888       511       30768     290       199       232       232       1346      1         2         
3      1025      913       30758     291       291       223       223       1351      1         2         
2      1225      631       30791     192       189       113       113       1355      1         2         
1      155       673       30797     286       189       106       106       1372      1         2         
1      863       696       30735     290       189       270.5     270.5     1376      1         2         
2      958       946       30809     291       290       119       119       1381      1         2         
2      1151      882       30786     291       290       169       169       1410      1         3         
1      1151      626       30796     291       189       159       159       1410      2         4         
1      1026      936       30803     291       291       190       190       1415      1         2         
2      412       594       30781     52        131       137       137       1475      1         2         
1      325       118       30810     299       286       0         0         0         0         0         
1      388       134       30810     299       9         0         0         0         0         0         
1      99        511       30810     286       199       0         0         0         0         0         
1      662       924       30811     131       290       0         0         0         0         0         
1      416       556       30811     100       199       0         0         0         0         0         
2      398       604       30811     168       189       0         0         0         0         0         
3      398       604       30811     168       189       0         0         0         0         0         
1      916       575       30811     291       189       0         0         0         0         0         
1      894       891       30812     291       291       0         0         0         0         0         
1      667       35        30812     131       98        0         0         0         0         0         
2      499       399       30812     52        168       0         0         0         0         0         
1      858       946       30812     290       290       0         0         0         0         0         
2      863       48        30812     290       98        0         0         0         0         0         
1      556       643       30812     199       131       0         0         0         0         0         
1      816       440       30813     290       168       0         0         0         0         0         
2      499       801       30813     52        291       0         0         0         0         0         
3      557       247       30813     189       266       0         0         0         0         0         
1      555       603       30813     199       189       0         0         0         0         0         
1      859       720       30813     290       290       0         0         0         0         0         
3      557       247       30813     189       266       0         0         0         0         0         
1      747       581       30813     290       189       0         0         0         0         0         
1      527       628       30814     52        189       0         0         0         0         0         
1      655       228       30814     189       266       0         0         0         0         0         
1      649       600       30814     189       280       0         0         0         0         0         
3      875       946       30814     291       290       0         0         0         0         0         
3      875       946       30814     291       290       0         0         0         0         0         
3      1128      1207      30814     291       192       0         0         0         0         0         
3      1128      1207      30814     291       192       0         0         0         0         0         
1      529       508       30814     189       199       0         0         0         0         0         
1      312       604       30814     87        189       0         0         0         0         0         
1      723       811       30814     290       290       0         0         0         0         0         
1      369       304       30814     52        299       0         0         0         0         0         
1      1098      593       30815     84        52        0         0         0         0         0         
1      217       99        30815     87        286       0         0         0         0         0         
1      553       439       30815     189       189       0         0         0         0         0         
2      531       475       30815     189       52        0         0         0         0         0         
1      742       904       30815     290       290       0         0         0         0         0         
1      991       79        30815     290       98        0         0         0         0         0         
1      398       581       30816     168       189       0         0         0         0         0         
1      906       1032      30816     290       84        0         0         0         0         0         
4      476       600       30816     52        280       0         0         0         0         0         
1      420       553       30816     168       189       0         0         0         0         0         
1      717       779       30816     189       131       0         0         0         0         0         
3      669       616       30817     280       131       0         0         0         0         0         
1      969       881       30817     290       290       0         0         0         0         0         
1      915       1208      30817     291       192       0         0         0         0         0         
1      904       532       30817     290       199       0         0         0         0         0         
1      840       373       30817     290       119       0         0         0         0         0         
1      748       601       30817     290       189       0         0         0         0         0         
1      533       415       30817     199       100       0         0         0         0         0         
1      349       511       30817     127       199       0         0         0         0         0         
1      959       1168      30818     291       291       0         0         0         0         0         
2      482       414       30818     189       100       0         0         0         0         0         
1      1107      739       30818     291       189       0         0         0         0         0         
1      1025      946       30818     291       290       0         0         0         0         0         
1      372       504       30818     119       52        0         0         0         0         0         
1      463       581       30818     168       189       0         0         0         0         0         
3      482       414       30818     189       100       0         0         0         0         0         
1      413       669       30818     52        280       0         0         0         0         0         
1      597       695       30818     131       189       0         0         0         0         0         
2      287       674       30819     299       189       0         0         0         0         0         
3      287       674       30819     299       189       0         0         0         0         0         
1      601       718       30819     189       189       0         0         0         0         0         
1      925       116       30819     290       9         0         0         0         0         0         
1      906       772       30820     290       290       0         0         0         0         0         
3      813       948       30820     290       290       0         0         0         0         0         
2      813       948       30820     290       290       0         0         0         0         0         
1      433       415       30820     52        100       0         0         0         0         0         
1      654       629       30820     189       189       0         0         0         0         0         
1      716       528       30820     189       52        0         0         0         0         0         
1      626       673       30820     189       189       0         0         0         0         0         
1      488       557       30820     199       189       0         0         0         0         0         
1      735       571       30820     131       52        0         0         0         0         0         
2      1069      1207      30820     291       192       0         0         0         0         0         
3      747       910       30821     290       290       0         0         0         0         0         
3      355       10        30821     119       98        0         0         0         0         0         
1      608       334       30821     189       119       0         0         0         0         0         
1      510       535       30821     199       189       0         0         0         0         0         
1      984       696       30821     291       189       0         0         0         0         0         
1      662       1003      30821     131       291       0         0         0         0         0         
3      716       732       30821     189       131       0         0         0         0         0         
2      747       910       30821     290       290       0         0         0         0         0         
3      716       732       30821     189       131       0         0         0         0         0         
1      629       748       30822     189       290       0         0         0         0         0         
1      1086      1010      30822     291       290       0         0         0         0         0         
1      438       551       30822     100       189       0         0         0         0         0         
1      915       980       30822     291       291       0         0         0         0         0         
1      462       673       30823     189       189       0         0         0         0         0         
2      949       949       30823     290       290       0         0         0         0         0         
3      949       949       30823     290       290       0         0         0         0         0         
1      1131      21        30823     291       98        0         0         0         0         0         
1      1065      895       30824     291       291       0         0         0         0         0         
1      625       727       30824     189       290       0         0         0         0         0         
1      793       217       30825     290       87        0         0         0         0         0         
1      971       814       30825     290       290       0         0         0         0         0         
1      835       581       30825     290       189       0         0         0         0         0         
1      532       439       30826     199       189       0         0         0         0         0         
1      947       782       30826     290       291       0         0         0         0         0         
2      156       522       30826     286       52        0         0         0         0         0         
2      333       531       30826     119       189       0         0         0         0         0         
1      276       368       30826     87        299       0         0         0         0         0         
1      452       189       30827     52        286       0         0         0         0         0         
1      603       737       30827     189       189       0         0         0         0         0         
1      325       695       30827     299       189       0         0         0         0         0         
2      250       116       30827     127       9         0         0         0         0         0         
3      676       138       30828     189       57        0         0         0         0         0         
3      676       138       30828     189       57        0         0         0         0         0         
1      896       651       30828     291       189       0         0         0         0         0         
2      885       649       30828     290       189       0         0         0         0         0         
1      801       507       30829     291       189       0         0         0         0         0         
2      20        239       30829     98        87        0         0         0         0         0         
1      597       624       30829     131       189       0         0         0         0         0         
1      771       651       30829     290       189       0         0         0         0         0         
1      336       693       30829     277       280       0         0         0         0         0         
1      769       417       30829     290       100       0         0         0         0         0         
2      847       719       30829     291       189       0         0         0         0         0         
1      154       628       30829     286       189       0         0         0         0         0         
3      596       376       30830     131       168       0         0         0         0         0         
3      596       376       30830     131       168       0         0         0         0         0         
1      1044      702       30830     291       290       0         0         0         0         0         
1      795       701       30830     290       290       0         0         0         0         0         
1      311       557       30830     87        189       0         0         0         0         0         
1      338       728       30830     277       290       0         0         0         0         0         
3      509       230       30830     199       266       0         0         0         0         0         
1      702       533       30831     290       199       0         0         0         0         0         
2      691       731       30831     131       131       0         0         0         0         0         
1      398       622       30831     168       280       0         0         0         0         0         
1      527       396       30831     52        119       0         0         0         0         0         
1      481       695       30831     189       189       0         0         0         0         0         
1      991       695       30831     290       189       0         0         0         0         0         
1      476       555       30831     52        199       0         0         0         0         0         
1      600       551       30832     280       189       0         0         0         0         0         
1      350       209       30832     127       266       0         0         0         0         0         
1      389       779       30832     299       131       0         0         0         0         0         
1      480       629       30832     52        189       0         0         0         0         0         
1      700       1088      30833     290       291       0         0         0         0         0         
1      1109      732       30833     291       131       0         0         0         0         0         
2      482       214       30833     189       207       0         0         0         0         0         
1      745       738       30833     290       189       0         0         0         0         0         
1      1308      972       30833     129       290       0         0         0         0         0         
2      605       737       30834     189       189       0         0         0         0         0         
1      485       695       30834     189       189       0         0         0         0         0         
1      643       849       30834     131       291       0         0         0         0         0         
1      500       624       30834     52        189       0         0         0         0         0         
1      630       436       30834     189       100       0         0         0         0         0         
2      354       484       30834     119       189       0         0         0         0         0         
1      947       691       30834     290       131       0         0         0         0         0         
1      555       504       30835     199       52        0         0         0         0         0         
1      723       948       30835     290       290       0         0         0         0         0         
1      551       528       30835     189       52        0         0         0         0         0         
1      325       1023      30835     299       291       0         0         0         0         0         
1      526       417       30835     52        100       0         0         0         0         0         
1      668       117       30835     280       286       0         0         0         0         0         
1      1087      848       30836     291       291       0         0         0         0         0         
1      782       923       30836     291       290       0         0         0         0         0         
1      694       1217      30837     189       84        0         0         0         0         0         
1      946       1217      30837     290       84        0         0         0         0         0         
1      668       812       30837     280       290       0         0         0         0         0         
1      604       904       30837     189       290       0         0         0         0         0         
1      523       558       30837     52        189       0         0         0         0         0         
3      768       760       30838     290       291       0         0         0         0         0         
2      768       760       30838     290       291       0         0         0         0         0         
4      213       219       30838     266       87        0         0         0         0         0         
1      813       946       30838     290       290       0         0         0         0         0         
1      457       410       30838     52        52        0         0         0         0         0         
1      597       627       30838     131       189       0         0         0         0         0         
1      464       575       30838     168       189       0         0         0         0         0         
1      875       557       30838     291       189       0         0         0         0         0         
1      9         138       30838     98        57        0         0         0         0         0         
1      700       838       30838     290       290       0         0         0         0         0         
1      883       651       30839     290       189       0         0         0         0         0         
1      463       527       30839     168       52        0         0         0         0         0         
1      850       556       30839     291       199       0         0         0         0         0         
1      499       737       30839     52        189       0         0         0         0         0         
1      21        116       30839     98        9         0         0         0         0         0         
2      475       408       30839     52        299       0         0         0         0         0         
1      630       557       30839     189       189       0         0         0         0         0         
